# LAMMPS mod to do an atheraml quasistatic shear on a system
## total thermal info will be output to a file "strain_stress_energy.dat"

variable maximum_strain 	equal 0.15 	# maximum strain of AQS
variable strain_step 		equal 1e-5 	# minimum strain step
variable dump_fraq 		equal 100 	# dump frequency of AQS steps
variable dxy 			equal "v_strain_step*ly" # xy increment of AQS step
variable nsteps 		equal "round(v_maximum_strain/v_strain_step)" # total number of AQS steps
variable n 			loop  ${nsteps} # loop index

variable force_tolerance 	equal 5e-4 	# force tolerance for minimization
variable energy_tolerance 	equal 0   	# energy tolerance for minimization
variable max_iter    		equal 10000	# maximum number of iteration steps for minimization
variable maxeval 		equal 10000	# maximum number of force evaluations for minimization

variable strain equal "xy / ly"
variable stress equal "-pxy"
variable ave_pe equal "pe/atoms"    # Average potetnial energy

reset_timestep   0
change_box all triclinic

#                     1   2       3     4      5   6   7   8   9   10 11  12  13
thermo_style custom step temp fnorm vol  pe pxx pyy pzz pxy pyz pxz v_strain 
thermo 100

minimize ${energy_tolerance} ${force_tolerance} ${max_iter} ${maxeval}

print "! 0 ${strain} ${stress} ${ave_pe}"  # print initial thermo

label shearloop
change_box all xy delta ${dxy} remap units box

min_style cg
minimize ${energy_tolerance} ${force_tolerance} ${max_iter} ${maxeval}

# output
variable  nn equal "v_n % v_dump_fraq"
if " ${nn} == 0 " then &
"write_dump all atom dump_${n}.lammpstrj modify sort id" &
"write_restart index_${n}.restart"

# thermo output
run 0
print  "! ${n} ${strain} ${stress} ${ave_pe}" # print current thermo info
next n

jump SELF shearloop

write_restart final.restart

shell grep "^!" log.lammps > strain_stress_energy.dat
label END

